Line_mode KPOINTS file
51
Line_mode
Reciprocal
0.0 0.0 0.0 ! \Gamma
0.5 -0.5 0.5 ! H

0.5 -0.5 0.5 ! H
0.0 0.0 0.5 ! N

0.0 0.0 0.5 ! N
0.0 0.0 0.0 ! \Gamma

0.0 0.0 0.0 ! \Gamma
0.25 0.25 0.25 ! P

0.25 0.25 0.25 ! P
0.5 -0.5 0.5 ! H

0.25 0.25 0.25 ! P
0.0 0.0 0.5 ! N

