Fe/A_cI2_229_a.A params=2.8665 SG=229 [ANRL doi: 10.1016/j.commatsci.2017.01.017 (part 1), doi: 10.1016/j.commatsci.2018.10.043 (part 2)]
1.43325
-1 1.0000 1.0000
1.0000 -1 1.0000
1.0000 1.0000 -1
Fe1
  1  
Direct(1) [A1] 
0.0 0.0 0.0 Fe1
